NAME : d6
COMMENT : Drilling problem (Reinelt)
TYPE : TSP
DIMENSION : 6
EDGE_WEIGHT_TYPE : EUC_2D
NODE_COORD_SECTION
1 0.00000e+00 0.00000e+00
2 1.11630e+03 1.55520e+03
3 1.35760e+03 1.47900e+03
4 1.14810e+03 1.77110e+03
5 1.18620e+03 1.79650e+03
6 1.20520e+03 1.88540e+03
EOF
